c Random generated cnf formula, satisfiable: false
p cnf 10 50
-1 -6 -5 0
-10 8 -2 0
-10 6 -1 0
3 -4 -10 0
-5 1 -10 0
-5 -3 -8 0
-5 4 1 0
-3 4 -1 0
7 -10 -9 0
-7 5 -1 0
1 -2 3 0
-10 8 1 0
2 8 6 0
1 10 7 0
-10 1 9 0
7 8 10 0
-10 2 -8 0
-3 4 2 0
1 -3 10 0
-4 5 8 0
-10 -1 -4 0
7 -4 -6 0
-6 1 4 0
-5 -1 -4 0
9 10 -7 0
6 -5 -2 0
3 -9 -5 0
-5 -10 -1 0
3 -6 1 0
9 6 4 0
-4 -5 1 0
-3 -6 -7 0
7 10 -8 0
-6 -1 -3 0
-7 4 -10 0
1 -5 -6 0
6 -5 4 0
-4 2 -6 0
5 -2 10 0
8 -6 7 0
9 2 3 0
5 6 2 0
4 1 -10 0
-4 -1 -10 0
5 -1 -2 0
-4 -2 6 0
-6 9 4 0
8 7 1 0
5 -9 -8 0
-3 7 8 0
